# Solution for model r10_t18_m6_2
# Finished Task: 18 / 18
# Makespan: 584.0, Total Distance: 246.0, Total Time: 3.9192
# R O S F
0 0 17 3.0 3.0
1 1 -1 75.0 75.0
2 2 13 28.0 28.0
3 3 -1 69.0 69.0
4 4 14 35.0 35.0
5 5 25 73.0 73.0
6 6 15 103.0 103.0
7 7 26 63.0 63.0
8 8 21 36.0 36.0
9 9 19 46.0 46.0
10 6 18 301.0 325.0
11 0 16 386.0 420.0
12 0 11 337.0 375.0
13 2 -1 223.0 245.0
14 4 24 445.0 484.0
15 6 10 111.0 146.0
16 0 -1 557.0 584.0
17 0 12 293.0 322.0
18 6 23 344.0 372.0
19 9 27 254.0 284.0
20 6 -1 501.0 523.0
21 8 -1 509.0 533.0
22 4 -1 556.0 584.0
23 6 20 451.0 489.0
24 4 22 493.0 516.0
25 5 -1 555.0 584.0
26 7 -1 454.0 482.0
27 9 -1 524.0 557.0
